CBMC version 5.42.0 (cbmc-5.42.0) 64-bit x86_64 linux
Parsing main.c
Converting
Type-checking main
Generating GOTO Program
Adding CPROVER library (x86_64)
Removal of function pointers and virtual functions
Generic Property Instrumentation
Running with 8 object bits, 56 offset bits (default)
Starting Bounded Model Checking
Runtime Symex: 0.00250988s
size of program expression: 108 steps
simple slicing removed 0 assignments
Generated 1 VCC(s), 0 remaining after simplification
Runtime Postprocess Equation: 1.3813e-05s
p cnf 0 0
